TITL p21c in P2(1)/c
    p21c.res
    created by SHELXL-2018/3 at 09:51:49 on 01-Mar-2019
CELL 0.71073 10.5086 20.9035 20.5072 90 94.13 90
ZERR 4 0.0003 0.0005 0.0005 0 0.001 0
LATT 1
SYMM -X,0.5+Y,0.5-Z
SFAC  C  H  O  F  AL  GA
UNIT  1  2  3  4  5  6
EADP C1_6 C1_4
EADP O1_6 O1_4
EADP C1_3 C1_5
EADP O1_3 O1_5
LIST 4 ! automatically inserted. Change 6 to 4 for CHECKCIF!!

L.S.  10
PLAN  20
TEMP -173.18
BOND $H
fmap 2
ACTA
CONF
REM Restraints for Fragment oc(cf3)3, Nonafluoro-tert-butoxy, [(CF3)3CO]-
REM from: TURBOMOLE V6.0 B-P86/def-SV(P). Please cite
REM https://doi.org/10.1107/S1600576718004508
SADI_CCF3 0.02 C1 C2 C1 C3 C1 C4
SADI_CCF3 0.02 F1 C2 F2 C2 F3 C2 F4 C3 F5 C3 F6 C3 F7 C4 F8 C4 F9 C4
SADI_CCF3 0.04 C2 C3 C3 C4 C2 C4
SADI_CCF3 0.04 O1 C2 O1 C3 O1 C4
SADI_CCF3 0.04 F1 F2 F2 F3 F3 F1 F4 F5 F5 F6 F6 F4 F7 F8 F8 F9 F9 F7
SADI_CCF3 0.02 O1 C1
SADI_CCF3 0.1 F1 C1 F2 C1 F3 C1 F4 C1 F5 C1 F6 C1 F7 C1 F8 C1 F9 C1
SIMU_CCF3 O1 > F9
RIGU_CCF3 O1 > F9
SAME_CCF3 O1 > F9
SIMU 0.04 0.08 1

SADI Al1 O1_1 Al1 O1_2 Al1 O1_3 Al1 O1_4

WGHT    0.049400
FVAR       0.08683   0.48189   0.55525
RESI CCF3 6
PART 2  -31
O1    3    0.079586    0.236605    0.399869   -31.00000    0.02062    0.03290 =
         0.01350   -0.00323   -0.00298    0.00516
C1    1    0.029910    0.234276    0.337040   -31.00000    0.01934    0.03318 =
         0.01432   -0.00363   -0.00451    0.00448
C2    1   -0.103183    0.202178    0.332245   -31.00000    0.02902    0.06130 =
         0.01439   -0.00577   -0.00343   -0.00770
F1    4   -0.194063    0.242560    0.347031   -31.00000    0.01945    0.08418 =
         0.03131   -0.01459   -0.00657    0.00769
F2    4   -0.134436    0.178934    0.272036   -31.00000    0.03049    0.07909 =
         0.02344   -0.01701   -0.00923   -0.01271
F3    4   -0.105728    0.152084    0.372614   -31.00000    0.04574    0.06913 =
         0.04065    0.01263   -0.00470   -0.01806
C3    1    0.121430    0.194367    0.298137   -31.00000    0.02980    0.04624 =
         0.01628   -0.00441   -0.00089    0.00856
F4    4    0.242822    0.210272    0.314252   -31.00000    0.02009    0.07435 =
         0.02825   -0.00523    0.00597    0.01371
F5    4    0.112069    0.131946    0.311414   -31.00000    0.05779    0.03823 =
         0.03437   -0.00575    0.00147    0.01919
F6    4    0.100349    0.199896    0.233639   -31.00000    0.04443    0.06624 =
         0.01667   -0.01125    0.00177    0.01414
C4    1    0.018535    0.302474    0.307456   -31.00000    0.04710    0.04045 =
         0.01781   -0.00022   -0.00833    0.00614
F7    4    0.130444    0.325381    0.293365   -31.00000    0.06202    0.04413 =
         0.03530    0.00854   -0.00145   -0.01281
F8    4   -0.057123    0.302625    0.252014   -31.00000    0.07600    0.06060 =
         0.02463    0.00844   -0.02500    0.01580
F9    4   -0.032884    0.340989    0.350179   -31.00000    0.06681    0.04277 =
         0.03788   -0.00913   -0.01450    0.02735
PART 0
RESI 0

REM REM DSR PUT OC(CF3)3 WITH O1 C1 C4 ON O1_4A C1_4A Q16 PART 2 OCC -31
REM !RESI CCF3

RESI CCF3 5
PART 2  -21
O1    3    0.140739    0.206477    0.531646   -21.00000    0.02028    0.02207 =
         0.01926    0.00184   -0.00291    0.00462
C1    1    0.182832    0.146849    0.545677   -21.00000    0.01974    0.01971 =
         0.02273    0.00133   -0.00436    0.00294
C2    1    0.316269    0.137037    0.519980   -21.00000    0.03162    0.02640 =
         0.04992    0.01021    0.00668    0.00408
F1    4    0.405849    0.168093    0.556619   -21.00000    0.02239    0.03783 =
         0.08998    0.00416   -0.00655   -0.00319
F2    4    0.353959    0.075829    0.521689   -21.00000    0.02996    0.03610 =
         0.05389    0.01196    0.00766    0.02068
F3    4    0.319142    0.157487    0.458153   -21.00000    0.04367    0.04439 =
         0.04375    0.01639    0.01911    0.01328
C3    1    0.091467    0.094914    0.515428   -21.00000    0.02698    0.02898 =
         0.03650   -0.00089   -0.00485    0.00115
F4    4   -0.029872    0.112015    0.520042   -21.00000    0.02227    0.04351 =
         0.06241   -0.00426   -0.00568   -0.00357
F5    4    0.107875    0.085457    0.452567   -21.00000    0.05320    0.03844 =
         0.03387   -0.01258   -0.00953    0.00628
F6    4    0.108771    0.038989    0.546051   -21.00000    0.05082    0.02323 =
         0.04758   -0.00045   -0.00620   -0.00522
C4    1    0.192792    0.140543    0.621261   -21.00000    0.04225    0.02763 =
         0.02445    0.00691   -0.00763    0.00126
F7    4    0.078592    0.131913    0.643550   -21.00000    0.05680    0.04943 =
         0.03350    0.01038    0.01868    0.00377
F8    4    0.264129    0.090342    0.642387   -21.00000    0.06124    0.04488 =
         0.03995    0.01622   -0.01278    0.01499
F9    4    0.245263    0.192803    0.649140   -21.00000    0.05153    0.03826 =
         0.03125   -0.00522   -0.01804   -0.00505
PART 0
RESI 0

REM REM DSR PUT OC(CF3)3 WITH O1 C1 C4 ON O1_3A C1_3A Q11 PART 2 OCC -21
REM !RESI CCF3
REM REM DSR PUT OC(CF3)3 WITH O1 C1 C4 ON O1_3A C1_3A Q11 PART 2 OCC -21 RESI =
GA1   6    0.639512    0.561735    0.237759    11.00000    0.02410    0.02508 =
         0.02491    0.00001   -0.00158    0.00159
AL1   5    0.064280    0.260188    0.478725    11.00000    0.01606    0.01975 =
         0.01368   -0.00007   -0.00219    0.00123
RESI 1 CCF3
O1    3   -0.097361    0.260917    0.489314    11.00000    0.01705    0.02602 =
         0.01672   -0.00410    0.00033    0.00072
C1    1   -0.187345    0.282861    0.527521    11.00000    0.01737    0.02278 =
         0.01759   -0.00052   -0.00181    0.00139
C2    1   -0.154304    0.264428    0.600345    11.00000    0.02021    0.03774 =
         0.02212   -0.00163   -0.00021    0.00598
F1    4   -0.175179    0.202418    0.610079    11.00000    0.04036    0.04362 =
         0.02847    0.01316    0.00118    0.00380
F2    4   -0.222322    0.297028    0.641448    11.00000    0.03253    0.06804 =
         0.01964   -0.00709    0.00370    0.01576
F3    4   -0.031500    0.275539    0.616639    11.00000    0.02287    0.05768 =
         0.02210   -0.00626   -0.00808    0.00744
C3    1   -0.201059    0.356738    0.522200    11.00000    0.02175    0.02861 =
         0.02941   -0.00572    0.00032    0.00043
F4    4   -0.189449    0.376067    0.461251    11.00000    0.04567    0.02832 =
         0.03494    0.00598    0.00449    0.00193
F5    4   -0.110409    0.386666    0.560069    11.00000    0.02686    0.03298 =
         0.04598   -0.01528   -0.00148   -0.00436
F6    4   -0.313280    0.377293    0.540565    11.00000    0.02359    0.03304 =
         0.04454   -0.00660   -0.00015    0.00938
C4    1   -0.315976    0.251680    0.503985    11.00000    0.02182    0.02830 =
         0.02391    0.00043    0.00069    0.00053
F7    4   -0.362562    0.278262    0.447769    11.00000    0.02263    0.04194 =
         0.02737    0.00099   -0.01010    0.00185
F8    4   -0.404359    0.257816    0.547038    11.00000    0.02060    0.04883 =
         0.03559   -0.00165    0.00542   -0.00223
F9    4   -0.301415    0.189565    0.492526    11.00000    0.02695    0.02720 =
         0.04230   -0.00399   -0.00180   -0.00531
RESI 0

RESI 2 CCF3
O1    3    0.120474    0.336571    0.494131    11.00000    0.01597    0.02191 =
         0.02317   -0.00116   -0.00224   -0.00162
C1    1    0.223162    0.375180    0.503837    11.00000    0.01567    0.02220 =
         0.02108    0.00105   -0.00350   -0.00066
C2    1    0.325776    0.359142    0.456112    11.00000    0.02140    0.02872 =
         0.03022   -0.00083   -0.00013   -0.00069
F1    4    0.342791    0.296335    0.451998    11.00000    0.02517    0.03091 =
         0.04945   -0.00947    0.00445    0.00465
F2    4    0.439096    0.385309    0.473513    11.00000    0.01750    0.04354 =
         0.05139   -0.00541    0.00375   -0.00637
F3    4    0.290697    0.379731    0.395758    11.00000    0.03933    0.04637 =
         0.02538    0.00201    0.00748   -0.00326
C3    1    0.178863    0.445123    0.492599    11.00000    0.02224    0.02524 =
         0.02744    0.00167   -0.00208   -0.00074
F4    4    0.116016    0.466254    0.542728    11.00000    0.03125    0.02822 =
         0.03895   -0.00873    0.00246    0.00367
F5    4    0.100266    0.449633    0.439084    11.00000    0.03706    0.03265 =
         0.03461    0.00778   -0.01230    0.00734
F6    4    0.276148    0.485248    0.485745    11.00000    0.03299    0.02491 =
         0.04650    0.00508    0.00087   -0.00687
C4    1    0.282199    0.368633    0.575500    11.00000    0.02727    0.02971 =
         0.02592    0.00077   -0.00752   -0.00360
F7    4    0.192059    0.365519    0.617275    11.00000    0.04140    0.05372 =
         0.02021    0.00216   -0.00006   -0.00926
F8    4    0.358324    0.417820    0.593767    11.00000    0.03448    0.03944 =
         0.03402   -0.00366   -0.01515   -0.00993
F9    4    0.351878    0.315200    0.582796    11.00000    0.03635    0.03426 =
         0.04111    0.00798   -0.02036    0.00474
RESI 0

C34   1    0.369681    0.548725    0.213203    11.00000    0.02000    0.02254 =
         0.03075   -0.00489   -0.00289    0.00116
AFIX  43
H34   2    0.340307    0.506500    0.203867    11.00000   -1.20000
AFIX   0
C33   1    0.380596    0.569529    0.277906    11.00000    0.01599    0.03256 =
         0.02438    0.00135   -0.00203    0.00415
C32   1    0.425170    0.631362    0.290546    11.00000    0.01544    0.03210 =
         0.02648   -0.00921   -0.00403    0.00561
AFIX  43
H32   2    0.435572    0.645818    0.334526    11.00000   -1.20000
AFIX   0
C35   1    0.400672    0.588145    0.161616    11.00000    0.01784    0.02845 =
         0.02227   -0.00161   -0.00587    0.00281
C30   1    0.443738    0.649841    0.176368    11.00000    0.02034    0.02430 =
         0.02617    0.00457   -0.00251    0.00401
AFIX  43
H30   2    0.466072    0.677156    0.141972    11.00000   -1.20000
AFIX   0
C36   1    0.383707    0.565132    0.092087    11.00000    0.04295    0.03602 =
         0.02269   -0.00270   -0.00389    0.00015
AFIX 137
H36A  2    0.294881    0.571487    0.075370    11.00000   -1.50000
H36B  2    0.404985    0.519545    0.090378    11.00000   -1.50000
H36C  2    0.440196    0.589359    0.065185    11.00000   -1.50000
AFIX   0
C31   1    0.454816    0.672450    0.240680    11.00000    0.01653    0.02496 =
         0.03568   -0.00436   -0.00388    0.00400
C37   1    0.341156    0.527424    0.332511    11.00000    0.02647    0.04351 =
         0.02840    0.00159    0.00203   -0.00424
AFIX 137
H37A  2    0.409047    0.526799    0.367869    11.00000   -1.50000
H37B  2    0.326090    0.483863    0.316056    11.00000   -1.50000
H37C  2    0.262663    0.544206    0.349148    11.00000   -1.50000
AFIX   0
C38   1    0.494310    0.740504    0.255555    11.00000    0.03634    0.02791 =
         0.04824   -0.00737   -0.00686   -0.00104
AFIX 137
H38A  2    0.530095    0.759377    0.217138    11.00000   -1.50000
H38B  2    0.558777    0.741085    0.292542    11.00000   -1.50000
H38C  2    0.419744    0.765308    0.266659    11.00000   -1.50000
AFIX   0

C21   1    0.721920    0.447956    0.167568    11.00000    0.02890    0.02281 =
         0.02628   -0.00357   -0.00152    0.00699
C20   1    0.838303    0.474769    0.190369    11.00000    0.02340    0.03001 =
         0.02901    0.00418    0.00462    0.00701
AFIX  43
H20   2    0.894196    0.490748    0.159803    11.00000   -1.20000
AFIX   0
C23   1    0.673437    0.429161    0.280504    11.00000    0.03004    0.01947 =
         0.02963    0.00332    0.00341    0.00515
C25   1    0.874362    0.478632    0.256921    11.00000    0.01977    0.02781 =
         0.03499    0.00289   -0.00742    0.00368
C22   1    0.641016    0.425700    0.213112    11.00000    0.02693    0.02161 =
         0.03421   -0.00076   -0.00327    0.00173
AFIX  43
H22   2    0.561286    0.407580    0.198155    11.00000   -1.20000
AFIX   0
C28   1    0.685655    0.443541    0.095300    11.00000    0.05021    0.03688 =
         0.02582   -0.00653   -0.00444    0.00281
AFIX 137
H28A  2    0.671565    0.486630    0.077381    11.00000   -1.50000
H28B  2    0.607229    0.418382    0.088012    11.00000   -1.50000
H28C  2    0.754578    0.422739    0.073488    11.00000   -1.50000
AFIX   0
C27   1    0.588461    0.401788    0.328939    11.00000    0.04252    0.04061 =
         0.03955    0.00852    0.00627   -0.00200
AFIX 137
H27A  2    0.582575    0.431823    0.365291    11.00000   -1.50000
H27B  2    0.623936    0.361120    0.345628    11.00000   -1.50000
H27C  2    0.503220    0.394494    0.307618    11.00000   -1.50000
AFIX   0
C24   1    0.790623    0.456437    0.301100    11.00000    0.03207    0.02725 =
         0.02305    0.00016   -0.00470    0.00903
AFIX  43
H24   2    0.813738    0.459915    0.346606    11.00000   -1.20000
AFIX   0
C26   1    1.002681    0.505423    0.281388    11.00000    0.02883    0.06258 =
         0.05038    0.00702   -0.01304   -0.00249
AFIX 137
H26A  2    1.045644    0.523116    0.244551    11.00000   -1.50000
H26B  2    1.055074    0.471230    0.302078    11.00000   -1.50000
H26C  2    0.990493    0.539288    0.313393    11.00000   -1.50000
AFIX   0

RESI 3 CCF3
PART 1 21
O1    3    0.158493    0.209886    0.529443    21.00000    0.02028    0.02207 =
         0.01926    0.00184   -0.00291    0.00462
C1    1    0.198829    0.149666    0.543737    21.00000    0.01974    0.01971 =
         0.02273    0.00133   -0.00436    0.00294
C2    1    0.283539    0.124932    0.490335    21.00000    0.04394    0.02638 =
         0.02826    0.00195   -0.00004    0.00922
F1    4    0.355763    0.074983    0.510583    21.00000    0.04645    0.02796 =
         0.02729   -0.00418   -0.00122    0.01290
F2    4    0.359577    0.170578    0.471442    21.00000    0.03979    0.03675 =
         0.04531    0.00720    0.01815    0.01194
F3    4    0.212099    0.104099    0.438132    21.00000    0.08043    0.03928 =
         0.02895   -0.01190   -0.02123    0.02463
C3    1    0.086661    0.103588    0.549738    21.00000    0.02420    0.03212 =
         0.06214    0.01244   -0.00711    0.00282
F4    4    0.117515    0.041476    0.547387    21.00000    0.03437    0.02865 =
         0.10450    0.01893   -0.00853   -0.00040
F5    4   -0.005053    0.114179    0.501937    21.00000    0.03157    0.03600 =
         0.09583    0.00894   -0.03267   -0.00892
F6    4    0.032519    0.113037    0.606816    21.00000    0.04101    0.05312 =
         0.08343    0.03197    0.03056    0.00265
C4    1    0.280520    0.152825    0.609912    21.00000    0.03695    0.02723 =
         0.02366    0.00600   -0.00773    0.00784
F7    4    0.222284    0.187862    0.652611    21.00000    0.06598    0.04793 =
         0.01656    0.00421   -0.00444    0.02205
F8    4    0.298062    0.094377    0.636893    21.00000    0.05033    0.03159 =
         0.02770    0.01209   -0.00871    0.01329
F9    4    0.394928    0.177213    0.602400    21.00000    0.02822    0.03929 =
         0.04523   -0.00384   -0.01872    0.00209
PART 0
RESI 0

RESI 4 CCF3
PART 1 31
O1    3    0.084147    0.234158    0.400108    31.00000    0.02062    0.03290 =
         0.01350   -0.00323   -0.00298    0.00516
C1    1    0.035674    0.231737    0.336884    31.00000    0.01934    0.03318 =
         0.01432   -0.00363   -0.00451    0.00448
C2    1    0.150659    0.233072    0.294367    31.00000    0.03544    0.04001 =
         0.01750   -0.00446   -0.00162    0.00653
F1    4    0.121557    0.212231    0.233145    31.00000    0.04251    0.05698 =
         0.01222   -0.00576    0.00086    0.00229
F2    4    0.245388    0.195162    0.319678    31.00000    0.02852    0.05837 =
         0.02933   -0.00435   -0.00296    0.01542
F3    4    0.196820    0.291958    0.290364    31.00000    0.04334    0.04756 =
         0.02850    0.00189    0.00559   -0.01136
C3    1   -0.052876    0.288688    0.318534    31.00000    0.03239    0.04009 =
         0.01975   -0.00341   -0.00489    0.01108
F4    4   -0.005632    0.342642    0.346527    31.00000    0.05083    0.02884 =
         0.02856   -0.00326   -0.01186    0.01353
F5    4   -0.067497    0.299751    0.254362    31.00000    0.04240    0.04577 =
         0.01917   -0.00224   -0.00446    0.01590
F6    4   -0.169041    0.279979    0.339260    31.00000    0.02450    0.06344 =
         0.03137    0.00024   -0.00465    0.01695
C4    1   -0.039114    0.168506    0.325691    31.00000    0.03112    0.04165 =
         0.02351   -0.00279   -0.01033   -0.00319
F7    4   -0.115597    0.158599    0.373513    31.00000    0.03008    0.05062 =
         0.03311   -0.00246   -0.00164   -0.01788
F8    4   -0.110316    0.168390    0.268655    31.00000    0.04789    0.04886 =
         0.03185    0.00011   -0.02081   -0.00653
F9    4    0.041085    0.118693    0.324928    31.00000    0.05377    0.03271 =
         0.03773   -0.00737   -0.01007    0.00490
PART 0
RESI 0

HKLF 4




REM  p21c in P2(1)/c
REM wR2 = 0.1011, GooF = S = 1.016, Restrained GooF = 0.831 for all data
REM R1 = 0.0402 for 7085 Fo > 4sig(Fo) and 0.0796 for all 10786 data
REM 921 parameters refined using 6198 restraints

END  
     
WGHT      0.0494      0.0000 

REM Highest difference peak  0.406,  deepest hole -0.687,  1-sigma level  0.073
Q1    1   0.6917  0.6020  0.2176  11.00000  0.05    0.41
Q2    1   0.7431  0.5688  0.2124  11.00000  0.05    0.36
Q3    1   0.6806  0.5285  0.2072  11.00000  0.05    0.36
Q4    1   0.7400  0.4707  0.0667  11.00000  0.05    0.35
Q5    1   0.2764  0.3714  0.4868  11.00000  0.05    0.33
Q6    1   0.6866  0.3928  0.0902  11.00000  0.05    0.33
Q7    1   0.5922  0.5884  0.2737  11.00000  0.05    0.32
Q8    1   0.6393  0.4372  0.3132  11.00000  0.05    0.32
Q9    1   0.1837  0.3573  0.4988  11.00000  0.05    0.31
Q10   1  -0.1288  0.2540  0.4775  11.00000  0.05    0.31
Q11   1  -0.1807  0.3164  0.5156  11.00000  0.05    0.30
Q12   1   0.5865  0.6686  0.2340  11.00000  0.05    0.30
Q13   1   0.5938  0.5396  0.2790  11.00000  0.05    0.30
Q14   1  -0.1362  0.2691  0.5127  11.00000  0.05    0.30
Q15   1   0.1383  0.3033  0.4746  11.00000  0.05    0.29
Q16   1   0.5872  0.5158  0.2605  11.00000  0.05    0.29
Q17   1   0.3486  0.5657  0.2459  11.00000  0.05    0.29
Q18   1   0.8791  0.5410  0.3472  11.00000  0.05    0.28
Q19   1  -0.1127  0.2226  0.4996  11.00000  0.05    0.28
Q20   1  -0.1715  0.2799  0.5598  11.00000  0.05    0.28
